p cnf 36 100
a 2 20 0
e 1 3 4 5 6 7 8 9 10 11 12 13 14 15 16 17 18 19 21 22 23 24 25 26 27 28 29 30 31 32 33 34 35 36 0
1 -2 -3 0
-1 2 -3 0
1 2 3 0
-1 -2 3 0
-5 -3 0
-5 -4 0
3 4 5 0
6 2 0
6 -1 0
-2 1 -6 0
-5 6 -7 0
5 -6 -7 0
-5 -6 7 0
5 6 7 0
-9 -1 0
-9 8 0
1 -8 9 0
9 2 -10 0
-9 -2 -10 0
9 -2 10 0
-9 2 10 0
10 11 -12 0
-10 -11 -12 0
10 -11 12 0
-10 11 12 0
13 -8 -14 0
-13 8 -14 0
13 8 14 0
-13 -8 14 0
15 -12 0
15 14 0
12 -14 -15 0
-16 4 0
-16 9 0
-4 -9 16 0
18 -17 0
18 17 0
19 -17 0
19 -3 0
17 3 -19 0
20 -18 0
20 19 0
18 -19 -20 0
21 -16 0
21 20 0
16 -20 -21 0
22 15 0
22 -21 0
-15 21 -22 0
8 1 -23 0
-8 -1 -23 0
8 -1 23 0
-8 1 23 0
-24 -22 0
-24 23 0
22 -23 24 0
2 25 -26 0
-2 -25 -26 0
2 -25 26 0
-2 25 26 0
27 -24 0
27 26 0
24 -26 -27 0
-28 -13 0
-28 17 0
13 -17 28 0
-28 6 -29 0
28 -6 -29 0
-28 -6 29 0
28 6 29 0
30 1 0
30 -1 0
-30 31 0
30 31 0
32 -31 0
32 -30 0
31 30 -32 0
-32 -4 -33 0
32 4 -33 0
-32 4 33 0
32 -4 33 0
-34 -29 0
-34 -33 0
29 33 34 0
-35 27 0
-35 -34 0
-27 34 35 0
-36 -7 0
-36 35 0
7 -35 36 0
3 -29 -36 -15 18 -6 0
19 9 -8 -16 -20 0
32 15 1 36 -25 0
23 -16 8 35 -6 9 -28 -27 0
23 -13 -28 25 0
-26 7 -36 -22 -35 0
20 -8 -30 -34 0
36 28 0
20 -5 33 24 -28 7 0
36 0
